9
-1 83 95 41 2 50 91 36 74
20 -1 21 48 99 68 84 81 34
53 99 -1 38 88 27 67 28 93
48 83 7 -1 10 17 13 14 9
16 35 51 49 -1 56 98 3 24
8 44 9 89 2 -1 85 93 43
23 87 14 3 48 58 -1 80 96
98 81 89 98 9 57 72 -1 38
92 38 79 90 57 58 91 15 -1